120 150

45
56
50
55
44
49
60
55
53
53
54
45
41
55
58
47
55
59
43
48
48
43
44
49
57
58
50
50
42
57
60
46
52
44
56
48
55
42
54
53
50
58
57
52
43
55
42
47
43
55
53
42
52
50
53
59
45
47
49
49
55
50
50
50
56
54
56
41
51
44
43
47
40
49
54
49
57
60
42
44
49
48
56
50
57
53
41
52
46
59
40
48
49
49
52
49
43
60
55
45
43
42
53
57
50
60
60
53
47
50
43
55
51
45
50
56
58
41
44
55